62 62
25 9
45 31
27 15
19 8
49 24
46 3
44 21
3 21
10 15
23 29
20 6
29 16
42 12
37 12
15 16
33 3
6 23
28 7
53 13
22 26
36 11
39 22
51 23
1 4
57 20
31 14
50 22
56 2
52 10
62 28
38 4
43 17
24 25
21 13
60 2
5 28
48 30
12 18
18 10
13 8
17 1
47 11
14 27
11 19
4 25
58 26
54 7
55 27
34 6
8 31
32 29
30 17
61 18
35 30
41 14
40 1
2 20
16 24
26 5
7 19
59 9
9 5
